94
0 32 53 78 1 71 75 27 35 2 
86 89 41 81 79 43 76 92 48 17 
33 3 29 12 49 58 52 36 18 50 
63 16 47 44 42 70 73 9 74 62 
11 83 30 51 54 65 91 88 13 69 
28 34 22 45 7 19 20 60 8 85 
23 84 24 61 82 68 39 46 80 66 
40 72 25 4 77 93 5 57 21 59 
90 37 55 26 15 10 64 38 6 67 
14 56 87 31 
